Problem:    
Rows:       256
Columns:    89 (72 integer, 72 binary)
Non-zeros:  960
Status:     INTEGER OPTIMAL
Objective:  value = 3.753831 (MINimum)

   No.   Row name        Activity     Lower bound   Upper bound
------ ------------    ------------- ------------- -------------
     1 r.5                   1003.75             0               
     2 r.6                  -999.198      -999.708               
     3 r.7                   3.75383             0               
     4 r.8                  0.801743      -995.913               
     5 r.9                   1003.75             0               
     6 r.10                 -996.986      -999.576               
     7 r.11                  3.75383             0               
     8 r.12                   3.3918      -995.502               
     9 r.13                  1003.75             0               
    10 r.14                 -996.608      -999.622               
    11 r.15                  3.75383             0               
    12 r.16                   3.3918      -994.259               
    13 r.17                  1003.75             0               
    14 r.18                 -999.491      -999.817               
    15 r.19                  3.75383             0               
    16 r.20                    3.014      -996.154               
    17 r.21                  1003.75             0               
    18 r.22                 -999.674      -999.749               
    19 r.23                  3.75383             0               
    20 r.24                 0.801743      -996.083               
    21 r.25                  1003.75             0               
    22 r.26                 -999.925      -999.925               
    23 r.27                  3.75383             0               
    24 r.28                 -997.577      -997.577               
    25 r.29                  1003.75             0               
    26 r.30                  -997.41      -998.212               
    27 r.31                  3.75383             0               
    28 r.32                  3.75383      -981.809               
    29 r.33                  1003.75             0               
    30 r.34                 -996.246      -999.638               
    31 r.35                  3.75383             0               
    32 r.36                  3.75383      -997.541               
    33 r.37                        1             1             = 
    34 r.38                        1             1             = 
    35 r.39                        1             1             = 
    36 r.40                        1             1             = 
    37 r.41                        1             1             = 
    38 r.42                        1             1             = 
    39 r.43                        1             1             = 
    40 r.44                        1             1             = 
    41 r.45                        2             2               
    42 r.46                       -2         -1001               
    43 r.47                 -997.788      -999.576               
    44 r.48                     1000             2               
    45 r.49                    -1000         -1001               
    46 r.50                  2002.59      -995.502               
    47 r.51                        2             2               
    48 r.52                       -2         -1001               
    49 r.53                  -997.41      -999.622               
    50 r.54                     1000             2               
    51 r.55                    -1000         -1001               
    52 r.56                  2002.59      -994.259               
    53 r.57                        2             2               
    54 r.58                       -2         -1001               
    55 r.59                -0.292444      -999.817               
    56 r.60                     1000             2               
    57 r.61                    -1000         -1001               
    58 r.62                  2002.21      -996.154               
    59 r.63                        2             2               
    60 r.64                       -2         -1001               
    61 r.65                -0.475876      -999.749               
    62 r.66                     1000             2               
    63 r.67                    -1000         -1001               
    64 r.68                     2000      -996.083               
    65 r.69                 -999.273      -999.708               
    66 r.70                 0.726943      -995.913               
    67 r.71                 -1.62116      -999.708               
    68 r.72                  998.379      -995.913               
    69 r.73                 -998.212      -998.212               
    70 r.74                  2.95209      -981.809               
    71 r.75                 -998.212      -998.212               
    72 r.76                  2.95209      -981.809               
    73 r.77                        2             2               
    74 r.78                       -2         -1001               
    75 r.79                 -997.048      -999.638               
    76 r.80                     1000             2               
    77 r.81                    -1000         -1001               
    78 r.82                  2002.95      -997.541               
    79 r.83                        2             2               
    80 r.84                       -2         -1001               
    81 r.85                  997.788      0.292444               
    82 r.86                     1000             2               
    83 r.87                    -1000         -1001               
    84 r.88                  1997.41       4.08688               
    85 r.89                        2             2               
    86 r.90                       -2         -1001               
    87 r.91                 -999.622      -999.622               
    88 r.92                     1000             2               
    89 r.93                    -1000         -1001               
    90 r.94                     2000      -994.259               
    91 r.95                        2             2               
    92 r.96                       -2         -1001               
    93 r.97                  -2.5047      -999.817               
    94 r.98                     1000             2               
    95 r.99                    -1000         -1001               
    96 r.100                 1999.62      -996.154               
    97 r.101                       2             2               
    98 r.102                      -2         -1001               
    99 r.103                -2.68813      -999.749               
   100 r.104                    1000             2               
   101 r.105                   -1000         -1001               
   102 r.106                 1997.41      -996.083               
   103 r.107                -997.061      -999.576               
   104 r.108                   3.317      -995.502               
   105 r.109                0.591098      -999.576               
   106 r.110                 1000.97      -995.502               
   107 r.111                       2             2               
   108 r.112                      -2         -1001               
   109 r.113               -0.424144      -998.212               
   110 r.114                    1000             2               
   111 r.115                   -1000         -1001               
   112 r.116                 2000.36      -981.809               
   113 r.117                 -999.26      -999.638               
   114 r.118                0.739833      -997.541               
   115 r.119                -999.638      -999.638               
   116 r.120                0.362033      -997.541               
   117 r.121                       2             2               
   118 r.122                      -2         -1001               
   119 r.123                  997.41      0.292444               
   120 r.124                    1000             2               
   121 r.125                   -1000         -1001               
   122 r.126                 1997.41       4.08688               
   123 r.127                       2             2               
   124 r.128                      -2         -1001               
   125 r.129                 999.622      0.424144               
   126 r.130                    1000             2               
   127 r.131                   -1000         -1001               
   128 r.132                    2000       4.49797               
   129 r.133                -997.118      -999.622               
   130 r.134                  2.8825      -994.259               
   131 r.135                -999.622      -999.622               
   132 r.136                  0.3778      -994.259               
   133 r.137                       2             2               
   134 r.138                      -2         -1001               
   135 r.139                -3.06593      -999.749               
   136 r.140                    1000             2               
   137 r.141                   -1000         -1001               
   138 r.142                 1997.41      -996.083               
   139 r.143                -996.683      -999.622               
   140 r.144                   3.317      -994.259               
   141 r.145                0.968898      -999.622               
   142 r.146                 1000.97      -994.259               
   143 r.147                       2             2               
   144 r.148                      -2         -1001               
   145 r.149               -0.801944      -998.212               
   146 r.150                    1000             2               
   147 r.151                   -1000         -1001               
   148 r.152                 2000.36      -981.809               
   149 r.153                -999.638      -999.638               
   150 r.154                0.362033      -997.541               
   151 r.155                -999.638      -999.638               
   152 r.156                0.362033      -997.541               
   153 r.157                       2             2               
   154 r.158                      -2         -1001               
   155 r.159                0.292444      0.292444               
   156 r.160                    1000             2               
   157 r.161                   -1000         -1001               
   158 r.162                 1997.79       4.08688               
   159 r.163                       2             2               
   160 r.164                      -2         -1001               
   161 r.165                  2.5047      0.424144               
   162 r.166                    1000             2               
   163 r.167                   -1000         -1001               
   164 r.168                 2000.38       4.49797               
   165 r.169                       2             2               
   166 r.170                      -2         -1001               
   167 r.171               -0.183432      -999.749               
   168 r.172                    1000             2               
   169 r.173                   -1000         -1001               
   170 r.174                 1997.79      -996.083               
   171 r.175                -999.566      -999.817               
   172 r.176                  2.9392      -996.154               
   173 r.177                 -1.9136      -999.817               
   174 r.178                 1000.59      -996.154               
   175 r.179                       2             2               
   176 r.180                      -2         -1001               
   177 r.181                -997.919      -998.212               
   178 r.182                    1000             2               
   179 r.183                   -1000         -1001               
   180 r.184                 2000.74      -981.809               
   181 r.185                -996.755      -999.638               
   182 r.186                 3.24453      -997.541               
   183 r.187                 -999.26      -999.638               
   184 r.188                0.739833      -997.541               
   185 r.189                       2             2               
   186 r.190                      -2         -1001               
   187 r.191                0.475877      0.292444               
   188 r.192                    1000             2               
   189 r.193                   -1000         -1001               
   190 r.194                    2000       4.08688               
   191 r.195                       2             2               
   192 r.196                      -2         -1001               
   193 r.197                 2.68813      0.424144               
   194 r.198                    1000             2               
   195 r.199                   -1000         -1001               
   196 r.200                 2002.59       4.49797               
   197 r.201                       2             2               
   198 r.202                      -2         -1001               
   199 r.203                 3.06593        0.3778               
   200 r.204                    1000             2               
   201 r.205                   -1000         -1001               
   202 r.206                 2002.59       5.74128               
   203 r.207                       2             2               
   204 r.208                      -2         -1001               
   205 r.209                0.183433      0.183433               
   206 r.210                    1000             2               
   207 r.211                   -1000         -1001               
   208 r.212                 2002.21       3.84561               
   209 r.213                -999.749      -999.749               
   210 r.214                0.726943      -996.083               
   211 r.215                -2.09703      -999.749               
   212 r.216                 998.379      -996.083               
   213 r.217                -997.736      -998.212               
   214 r.218                 3.42796      -981.809               
   215 r.219                -998.212      -998.212               
   216 r.220                 2.95209      -981.809               
   217 r.221                -996.572      -999.638               
   218 r.222                 3.42796      -997.541               
   219 r.223                -997.048      -999.638               
   220 r.224                 2.95209      -997.541               
   221 r.225                       2             2               
   222 r.226                      -2         -1001               
   223 r.227                0.424144      0.424144               
   224 r.228                    1000             2               
   225 r.229                   -1000         -1001               
   226 r.230                 1999.64       4.49797               
   227 r.231                       2             2               
   228 r.232                      -2         -1001               
   229 r.233                0.801944        0.3778               
   230 r.234                    1000             2               
   231 r.235                   -1000         -1001               
   232 r.236                 1999.64       5.74128               
   233 r.237                       2             2               
   234 r.238                      -2         -1001               
   235 r.239                 997.919      0.183433               
   236 r.240                    1000             2               
   237 r.241                   -1000         -1001               
   238 r.242                 1999.26       3.84561               
   239 r.243                       2             2               
   240 r.244                      -2         -1001               
   241 r.245                -998.836      -999.638               
   242 r.246                    1000             2               
   243 r.247                   -1000         -1001               
   244 r.248                    2000      -997.541               
   245 r.249                       2             2               
   246 r.250                      -2         -1001               
   247 r.251                 997.048      0.292444               
   248 r.252                    1000             2               
   249 r.253                   -1000         -1001               
   250 r.254                 1997.05       4.08688               
   251 r.255                       2             2               
   252 r.256                      -2         -1001               
   253 r.257                 998.836       1.78811               
   254 r.258                    1000             2               
   255 r.259                   -1000         -1001               
   256 r.260                    2000       18.1907               

   No. Column name       Activity     Lower bound   Upper bound
------ ------------    ------------- ------------- -------------
     1 tt                    3.75383             0               
     2 s_1_1        *              1             0             1 
     3 t_1_1                 2.95209             0               
     4 s_1_7        *              1             0             1 
     5 s_2_1        *              0             0             1 
     6 t_2_1                 2.95209             0               
     7 s_2_7        *              0             0             1 
     8 s_1_2        *              1             0             1 
     9 t_1_2                0.739833             0               
    10 s_1_8        *              1             0             1 
    11 s_2_2        *              0             0             1 
    12 t_2_2                0.362033             0               
    13 s_2_8        *              0             0             1 
    14 s_1_3        *              1             0             1 
    15 t_1_3                0.362033             0               
    16 s_2_3        *              0             0             1 
    17 t_2_3                0.362033             0               
    18 s_1_4        *              1             0             1 
    19 t_1_4                 3.24453             0               
    20 s_2_4        *              0             0             1 
    21 t_2_4                0.739833             0               
    22 s_1_5        *              1             0             1 
    23 t_1_5                 3.42796             0               
    24 s_2_5        *              0             0             1 
    25 t_2_5                 2.95209             0               
    26 s_1_6        *              1             0             1 
    27 t_1_6                 3.67903             0               
    28 s_2_6        *              0             0             1 
    29 t_2_6                 1001.33             0               
    30 t_1_7                 1.16398             0               
    31 t_2_7                       0             0               
    32 t_1_8                       0             0               
    33 t_2_8                       0             0               
    34 r_1_1_2      *              0             0             1 
    35 u_1_1_2      *              1             0             1 
    36 r_2_1_2      *              1             0             1 
    37 u_2_1_2      *              0             0             1 
    38 r_1_1_3      *              0             0             1 
    39 u_1_1_3      *              1             0             1 
    40 r_2_1_3      *              1             0             1 
    41 u_2_1_3      *              0             0             1 
    42 r_1_1_4      *              0             0             1 
    43 u_1_1_4      *              0             0             1 
    44 r_2_1_4      *              1             0             1 
    45 u_2_1_4      *              0             0             1 
    46 r_1_1_5      *              0             0             1 
    47 u_1_1_5      *              0             0             1 
    48 r_2_1_5      *              1             0             1 
    49 u_2_1_5      *              0             0             1 
    50 r_1_1_8      *              0             0             1 
    51 u_1_1_8      *              1             0             1 
    52 r_2_1_8      *              1             0             1 
    53 u_2_1_8      *              0             0             1 
    54 r_1_2_3      *              0             0             1 
    55 u_1_2_3      *              1             0             1 
    56 r_2_2_3      *              1             0             1 
    57 u_2_2_3      *              0             0             1 
    58 r_1_2_4      *              0             0             1 
    59 u_1_2_4      *              0             0             1 
    60 r_2_2_4      *              1             0             1 
    61 u_2_2_4      *              0             0             1 
    62 r_1_2_5      *              0             0             1 
    63 u_1_2_5      *              0             0             1 
    64 r_2_2_5      *              1             0             1 
    65 u_2_2_5      *              0             0             1 
    66 r_1_2_7      *              0             0             1 
    67 u_1_2_7      *              0             0             1 
    68 r_2_2_7      *              1             0             1 
    69 u_2_2_7      *              0             0             1 
    70 r_1_3_5      *              0             0             1 
    71 u_1_3_5      *              0             0             1 
    72 r_2_3_5      *              1             0             1 
    73 u_2_3_5      *              0             0             1 
    74 r_1_3_7      *              0             0             1 
    75 u_1_3_7      *              0             0             1 
    76 r_2_3_7      *              1             0             1 
    77 u_2_3_7      *              0             0             1 
    78 r_1_4_5      *              0             0             1 
    79 u_1_4_5      *              0             0             1 
    80 r_2_4_5      *              1             0             1 
    81 u_2_4_5      *              0             0             1 
    82 r_1_4_7      *              0             0             1 
    83 u_1_4_7      *              1             0             1 
    84 r_2_4_7      *              1             0             1 
    85 u_2_4_7      *              0             0             1 
    86 r_1_7_8      *              0             0             1 
    87 u_1_7_8      *              1             0             1 
    88 r_2_7_8      *              1             0             1 
    89 u_2_7_8      *              0             0             1 

Integer feasibility conditions:

KKT.PE: max.abs.err = 2.27e-13 on row 22
        max.rel.err = 1.13e-16 on row 22
        High quality

KKT.PB: max.abs.err = 0.00e+00 on row 0
        max.rel.err = 0.00e+00 on row 0
        High quality

End of output
